
******************************************************************************
This program contains Ipopt, a library for large-scale nonlinear optimization.
 Ipopt is released as open source code under the Eclipse Public License (EPL).
         For more information visit http://projects.coin-or.org/Ipopt
******************************************************************************

NOTE: You are using Ipopt by default with the MUMPS linear solver.
      Other linear solvers might be more efficient (see Ipopt documentation).


This is Ipopt version 3.11.2, running with linear solver mumps.

Number of nonzeros in equality constraint Jacobian...:    25786
Number of nonzeros in inequality constraint Jacobian.:        0
Number of nonzeros in Lagrangian Hessian.............:        0

Total number of variables............................:     3200
                     variables with only lower bounds:        0
                variables with lower and upper bounds:     3200
                     variables with only upper bounds:        0
Total number of equality constraints.................:     3100
Total number of inequality constraints...............:        0
        inequality constraints with only lower bounds:        0
   inequality constraints with lower and upper bounds:        0
        inequality constraints with only upper bounds:        0

iter    objective    inf_pr   inf_du lg(mu)  ||d||  lg(rg) alpha_du alpha_pr  ls
   0 -1.8100000e+001 7.83e+005 1.00e-002   0.0 0.00e+000    -  0.00e+000 0.00e+000   0
   1 -2.1325454e+001 7.83e+005 2.78e+003   8.8 5.74e+009    -  3.51e-009 2.21e-009f  1
   2 -1.9606975e+001 7.83e+005 2.10e+009   5.8 2.94e+005    -  9.90e-001 2.39e-005f  1
   3 -2.0105110e+001 7.83e+005 1.67e+013   9.7 1.17e+005    -  1.00e+000 9.36e-005f  2
   4 -1.5926878e+001 5.62e+005 1.82e+013   9.0 5.59e+001    -  1.79e-001 2.83e-001f  1
   5 -1.7319124e+001 5.39e+005 4.56e+014  11.0 1.31e+002    -  1.00e+000 4.08e-002f  1
   6 -1.6406300e+001 4.76e+005 2.68e+015  11.8 5.02e+001    -  1.00e+000 1.17e-001f  1
   7 -1.4943731e+001 3.53e+005 1.37e+016  12.5 2.82e+001    -  1.00e+000 2.58e-001f  1
   8 -1.3754630e+001 2.58e+005 3.81e+016  13.1 2.45e+001    -  1.00e+000 2.70e-001f  1
   9 -1.3261473e+001 8.19e+004 1.91e+016  13.3 1.31e+001    -  1.00e+000 6.82e-001f  1
iter    objective    inf_pr   inf_du lg(mu)  ||d||  lg(rg) alpha_du alpha_pr  ls
  10 -1.3458451e+001 4.14e+004 1.59e+016   7.0 2.41e+001    -  1.78e-001 4.95e-001f  1
  11 -1.4094289e+001 6.02e+001 4.18e+016  13.2 2.51e+001    -  1.00e+000 1.00e+000f  1
  12 -1.6133818e+001 2.33e+001 4.71e+014  12.9 7.01e+000    -  1.00e+000 1.00e+000f  1
  13 -1.7697084e+001 8.70e+000 1.46e+014  12.3 6.44e+000    -  9.97e-001 1.00e+000f  1
  14 -1.9034372e+001 3.15e+000 3.44e+014  12.1 4.70e+000    -  9.44e-001 1.00e+000f  1
  15 -2.0074169e+001 1.13e+000 1.57e+013  11.7 2.49e+000    -  9.98e-001 1.00e+000f  1
  16 -2.0828090e+001 6.29e-001 7.71e+014  10.3 2.20e+000    -  7.82e-001 1.00e+000f  1
  17 -2.1257751e+001 6.59e-001 3.19e+010  10.0 7.04e-001    -  1.00e+000 1.00e+000f  1
  18 -2.1531706e+001 4.67e-001 1.32e+013   4.0 6.30e-001    -  8.18e-001 1.00e+000f  1
  19 -2.1837081e+001 5.15e-002 4.32e+009   7.8 1.21e+000    -  1.00e+000 1.00e+000f  1
iter    objective    inf_pr   inf_du lg(mu)  ||d||  lg(rg) alpha_du alpha_pr  ls
  20 -2.2411579e+001 1.71e-001 2.71e+009   6.7 1.80e+000    -  1.00e+000 1.00e+000f  1
  21 -2.2618848e+001 1.38e-001 2.55e+010   5.5 1.59e+000    -  1.00e+000 2.50e-001f  3
  22 -2.4204998e+001 2.81e+002 2.29e+008   4.3 2.75e+000    -  1.00e+000 1.00e+000H  1
  23 -2.4254571e+001 4.77e-001 4.70e+005   3.2 1.73e-001    -  1.00e+000 1.00e+000h  1
  24 -2.4254267e+001 1.62e-002 5.16e+000   1.7 8.19e-004    -  1.00e+000 1.00e+000f  1
  25 -2.4253978e+001 8.45e+001 8.28e+001   1.6 1.95e-003   4.0 1.00e+000 1.00e+000s 22
  26 -2.4253954e+001 6.14e-003 2.41e+004   0.9 1.95e-003   3.5 9.44e-001 1.00e+000f  1
  27 -2.4253876e+001 4.52e-001 1.58e-001   0.2 2.03e-004   3.0 1.00e+000 1.00e+000h  1
  28 -2.4245958e+001 6.91e-005 2.19e-002  -0.5 2.19e-002    -  1.00e+000 1.00e+000f  1
  29 -2.5215788e+001 9.44e-002 2.91e+002  -6.5 2.64e+000    -  8.89e-001 1.00e+000f  1
iter    objective    inf_pr   inf_du lg(mu)  ||d||  lg(rg) alpha_du alpha_pr  ls
  30 -2.9877756e+001 3.92e+000 8.69e+001  -1.6 3.98e+001    -  9.59e-001 5.64e-001f  1
  31 -2.9060483e+001 8.57e-001 5.77e-001  -1.4 9.79e+000    -  1.00e+000 1.00e+000h  1
  32 -2.9626295e+001 6.79e-001 8.08e+001  -1.8 4.89e+000    -  9.65e-001 5.78e-001f  1
  33 -3.0464584e+001 5.59e+000 1.41e+000  -2.1 1.29e+001    -  1.00e+000 1.00e+000f  1
  34 -3.0314455e+001 2.03e+000 3.47e+000  -2.3 1.19e+001    -  9.94e-001 1.00e+000h  1
  35 -3.0306222e+001 3.91e-001 1.87e+000  -2.7 6.56e+000    -  9.98e-001 1.00e+000h  1
  36 -3.0305654e+001 9.60e-002 1.94e+000  -3.6 2.33e+000    -  1.00e+000 1.00e+000h  1
  37 -3.0307482e+001 9.85e-002 4.83e-001  -4.7 2.04e+000    -  1.00e+000 1.00e+000h  1
  38 -3.0304311e+001 4.29e-003 4.67e-001  -4.4 1.85e+000    -  1.00e+000 1.00e+000h  1
  39 -3.0303401e+001 4.50e-004 7.63e-002  -6.1 4.05e-001    -  1.00e+000 1.00e+000h  1
iter    objective    inf_pr   inf_du lg(mu)  ||d||  lg(rg) alpha_du alpha_pr  ls
  40 -3.0303352e+001 9.65e-005 5.86e-006  -8.2 9.86e-002    -  1.00e+000 1.00e+000h  1

Number of Iterations....: 40

                                   (scaled)                 (unscaled)
Objective...............: -3.0303351560886153e+001  -3.0303351560886153e+001
Dual infeasibility......:  5.8550439000219935e-006   5.8550439000219935e-006
Constraint violation....:  3.4402114177280399e-008   9.6467170763503418e-005
Complementarity.........:  1.5568620961109968e-008   1.5568620961109968e-008
Overall NLP error.......:  3.4402114177280399e-008   9.6467170763503418e-005


Number of objective function evaluations             = 75
Number of objective gradient evaluations             = 41
Number of equality constraint evaluations            = 75
Number of inequality constraint evaluations          = 0
Number of equality constraint Jacobian evaluations   = 41
Number of inequality constraint Jacobian evaluations = 0
Number of Lagrangian Hessian evaluations             = 0
Total CPU secs in IPOPT (w/o function evaluations)   =      2.931
Total CPU secs in NLP function evaluations           =      0.669

EXIT: Optimal Solution Found.
